Version identifier: 22.1.1.0 | 2022-11-28 | 9160aff4d
CPXPARAM_ClockType                               1
CPXPARAM_Read_DataCheck                          1
CPXPARAM_Threads                                 1
CPXPARAM_TimeLimit                               7200
CPXPARAM_MIP_Tolerances_AbsMIPGap                0
CPXPARAM_MIP_Tolerances_MIPGap                   0
CPXPARAM_MIP_Tolerances_Integrality              0
Tried aggregator 2 times.
MIP Presolve eliminated 249240 rows and 0 columns.
MIP Presolve modified 94160 coefficients.
Aggregator did 2520 substitutions.
Reduced MIP has 93830 rows, 12600 columns, and 664720 nonzeros.
Reduced MIP has 12600 binaries, 0 generals, 0 SOSs, and 0 indicators.
Presolve time = 5.07 sec. (3017.61 ticks)
Probing time = 0.03 sec. (4.97 ticks)
Tried aggregator 1 time.
Detecting symmetries...
MIP Presolve eliminated 130 rows and 0 columns.
Reduced MIP has 93700 rows, 12600 columns, and 661990 nonzeros.
Reduced MIP has 12600 binaries, 0 generals, 0 SOSs, and 0 indicators.
Presolve time = 1.81 sec. (1106.65 ticks)
Probing time = 0.02 sec. (4.96 ticks)
Clique table members: 90660.
MIP emphasis: balance optimality and feasibility.
MIP search method: dynamic search.
Parallel mode: none, using 1 thread.
Root relaxation solution time = 7212.50 sec. (4001334.62 ticks)

        Nodes                                         Cuts/
   Node  Left     Objective  IInf  Best Integer    Best Bound    ItCnt     Gap

      0     0   1.00000e+37     0                  40950.0000  1877983         

Root node processing (before b&c):
  Real time             = 7221.93 sec. (4007039.25 ticks)
Sequential b&c:
  Real time             =    0.00 sec. (0.00 ticks)
                          ------------
Total (root+branch&cut) = 7221.93 sec. (4007039.25 ticks)
Solution is infeasible.

---------------------
@@@ MIP_time_limit_infeasible
Traceback (most recent call last):
  File "/scratch/scherif/DiverseSAT-journal_sup/DiverseSAT_Supplementary_Experiments/experiment-1/cplex/jobs/../solvers/CPLEX-BIN.py", line 132, in <module>
    print(f">>> Benchmark {os.path.basename(cnf_file)} k {k} OPT {int(prob.solution.get_objective_value())}"
  File "/users/scherif/.local/lib/python3.9/site-packages/cplex/_internal/_subinterfaces.py", line 7211, in get_objective_value
    return CPX_PROC.getobjval(self._env._e, self._cplex._lp)
  File "/users/scherif/.local/lib/python3.9/site-packages/cplex/_internal/_procedural.py", line 2055, in getobjval
    check_status(env, status)
  File "/users/scherif/.local/lib/python3.9/site-packages/cplex/_internal/_procedural.py", line 249, in __call__
    raise CplexSolverError(error_string, env, status)
cplex.exceptions.errors.CplexSolverError: CPLEX Error  1217: No solution exists.
